s td 154 12 165
b 1 1 2 16
b 2 14 15 30
b 3 136 151 152
b 4 150 164 165
b 5 2 3 16 17
b 6 13 14 29 30
b 7 3 4 19 35 51 67 83 99 115 131 147 162
b 8 4 5 19 35 51 67 83 99 115 131 147 162
b 9 5 19 21 35 51 67 83 99 115 131 147 162
b 10 5 21 35 37 51 67 83 99 115 131 147 162
b 11 5 21 37 51 53 67 83 99 115 131 147 162
b 12 5 21 37 53 67 69 83 99 115 131 147 162
b 13 5 7 21 37 53 69 83 99 115 131 147 162
b 14 5 6 7 21
b 15 7 21 23 37 53 69 83 99 115 131 147 162
b 16 7 23 37 39 53 69 83 99 115 131 147 162
b 17 7 23 39 53 55 69 83 99 115 131 147 162
b 18 7 23 39 55 69 83 85 99 115 131 147 162
b 19 7 23 39 55 69 71 85 99 115 131 147 162
b 20 7 23 39 55 71 85 99 101 115 131 147 162
b 21 7 23 39 55 71 85 101 115 117 131 147 162
b 22 7 23 39 55 71 85 101 117 131 133 147 162
b 23 7 23 39 55 71 85 87 101 117 133 147 162
b 24 7 23 39 55 71 87 101 103 117 133 147 162
b 25 7 23 39 55 71 87 103 117 119 133 147 162
b 26 7 23 39 55 71 87 103 119 120 133 147 162
b 27 7 9 23 39 55 71 87 103 119 120
b 28 7 8 9 23
b 29 9 23 39 55 71 87 103 104 119 120
b 30 9 23 39 55 71 87 88 103 104 120
b 31 9 23 39 55 71 72 87 88 104 120
b 32 9 23 39 55 56 71 72 88 104 120
b 33 9 23 39 40 55 56 72 88 104 120
b 34 9 23 24 39 40 56 72 88 104 120
b 35 9 24 40 56 72 88 90 104 120
b 36 9 24 40 56 72 74 88 90 104
b 37 9 24 40 56 58 72 74 88 90
b 38 9 24 40 42 56 58 72 74 90
b 39 9 24 26 40 42 56 58 74 90
b 40 9 24 25 26 40 42 58 74 90
b 41 9 10 25 26 42 58 74 90
b 42 10 12 26 42 58 74 90
b 43 10 11 12 26
b 44 12 26 28 42 58 74 90
b 45 12 28 42 44 58 74 90
b 46 12 28 30 44 58 74 90
b 47 12 28 29 30 44
b 48 12 13 28 29 30
b 49 30 44 58 60 74 90
b 50 30 44 45 60
b 51 44 58 59 60 74
b 52 60 74 75 90
b 53 28 42 43 44 58
b 54 12 26 27 28 42
b 55 26 40 41 42 56
b 56 42 56 57 58 72
b 57 58 72 73 74 88
b 58 74 88 89 90 104
b 59 90 104 105 120
b 60 119 120 133 147 148 162
b 61 119 120 133 134 148 162
b 62 120 134 148 162 164
b 63 120 134 148 149 164
b 64 120 134 135 149 164
b 65 148 162 163 164
b 66 103 117 118 119 133
b 67 87 101 102 103 117
b 68 71 85 86 87 101
b 69 117 131 132 133 147
b 70 101 115 116 117 131
b 71 85 99 100 101 115
b 72 55 69 70 71 85
b 73 69 83 84 85 99
b 74 39 53 54 55 69
b 75 23 37 38 39 53
b 76 7 21 22 23 37
b 77 53 67 68 69 83
b 78 37 51 52 53 67
b 79 21 35 36 37 51
b 80 5 19 20 21 35
b 81 3 19 35 51 67 83 99 115 131 147 161 162
b 82 3 19 35 51 67 83 99 115 131 145 147 161
b 83 3 19 35 51 67 83 99 115 129 131 145 161
b 84 3 19 35 51 67 83 99 113 115 129 145 161
b 85 3 19 35 51 67 83 97 99 113 129 145 161
b 86 3 19 35 51 67 81 83 97 113 129 145 161
b 87 3 19 35 51 65 67 81 97 113 129 145 161
b 88 3 19 35 49 51 65 81 97 113 129 145 161
b 89 3 19 35 49 65 81 97 113 129 145 159 161
b 90 3 19 35 49 65 81 97 113 129 143 145 159
b 91 3 19 35 49 65 81 97 113 127 129 143 159
b 92 3 19 35 49 65 81 97 111 113 127 143 159
b 93 3 19 35 49 65 81 95 97 111 127 143 159
b 94 3 19 35 49 65 79 81 95 111 127 143 159
b 95 3 19 35 49 63 65 79 95 111 127 143 159
b 96 3 19 33 35 49 63 79 95 111 127 143 159
b 97 3 19 33 47 49 63 79 95 111 127 143 159
b 98 3 19 31 33 47 63 79 95 111 127 143 159
b 99 3 17 19 31 33 47
b 100 3 16 17 31
b 101 3 17 18 19 33
b 102 17 31 32 33 47
b 103 31 47 63 79 95 111 127 143 157 159
b 104 31 47 63 79 95 111 127 141 143 157
b 105 31 47 63 79 95 111 125 127 141 157
b 106 31 47 63 79 95 109 111 125 141 157
b 107 31 47 63 79 93 95 109 125 141 157
b 108 31 47 63 77 79 93 109 125 141 157
b 109 31 47 63 77 91 93 109 125 141 157
b 110 31 47 61 63 77 91
b 111 31 46 47 61
b 112 47 61 62 63 77
b 113 61 76 77 91
b 114 77 91 93 107 109 125 141 157
b 115 77 91 92 93 107
b 116 91 93 107 109 123 125 141 157
b 117 91 107 109 123 125 139 141 157
b 118 91 107 123 125 139 141 154 157
b 119 91 107 121 123 139 154
b 120 91 106 107 121
b 121 107 121 123 138 139 154
b 122 107 121 122 123 138 154
b 123 121 122 138 152 154
b 124 121 122 137 138 152
b 125 138 152 153 154
b 126 125 139 140 141 154 157
b 127 140 141 154 156 157
b 128 140 154 155 156
b 129 109 123 124 125 139
b 130 93 107 108 109 123
b 131 63 77 78 79 93
b 132 79 93 94 95 109
b 133 95 109 110 111 125
b 134 111 125 126 127 141
b 135 127 141 142 143 157
b 136 143 157 158 159
b 137 33 47 48 49 63
b 138 19 33 34 35 49
b 139 49 63 64 65 79
b 140 65 79 80 81 95
b 141 81 95 96 97 111
b 142 97 111 112 113 127
b 143 113 127 128 129 143
b 144 129 143 144 145 159
b 145 145 159 160 161
b 146 35 49 50 51 65
b 147 51 65 66 67 81
b 148 67 81 82 83 97
b 149 83 97 98 99 113
b 150 99 113 114 115 129
b 151 115 129 130 131 145
b 152 131 145 146 147 161
b 153 121 136 137 152
b 154 135 149 150 164
1 5
2 6
3 153
4 154
5 100
6 48
7 8
7 81
8 9
9 10
9 80
10 11
10 79
11 12
11 78
12 13
12 77
13 14
13 15
15 16
15 76
16 17
16 75
17 18
17 74
18 19
18 73
19 20
19 72
20 21
20 71
21 22
21 70
22 23
22 69
23 24
23 68
24 25
24 67
25 26
25 66
26 27
26 60
27 28
27 29
29 30
30 31
31 32
32 33
33 34
34 35
35 36
35 59
36 37
36 58
37 38
37 57
38 39
38 56
39 40
39 55
40 41
41 42
42 43
42 44
44 45
44 54
45 46
45 53
46 47
46 49
47 48
49 50
49 51
49 52
60 61
61 62
62 63
62 65
63 64
64 154
81 82
82 83
82 152
83 84
83 151
84 85
84 150
85 86
85 149
86 87
86 148
87 88
87 147
88 89
88 146
89 90
89 145
90 91
90 144
91 92
91 143
92 93
92 142
93 94
93 141
94 95
94 140
95 96
95 139
96 97
96 138
97 98
97 137
98 99
98 103
99 100
99 101
99 102
103 104
103 136
104 105
104 135
105 106
105 134
106 107
106 133
107 108
107 132
108 109
108 131
109 110
109 114
110 111
110 112
110 113
114 115
114 116
116 117
116 130
117 118
117 129
118 119
118 126
119 120
119 121
121 122
122 123
123 124
123 125
124 153
126 127
127 128
